c User generated cnf file
p cnf 14 37
2 -14 13 0 
9 8 -6 0 
9 3 -6 0 
8 -9 7 0 
1 9 -12 0 
8 6 -14 0 
3 6 -12 0 
7 -7 11 0 
10 11 -6 0 
14 -5 9 0 
6 -7 11 0 
1 2 -10 0 
10 -12 13 0 
9 -1 7 0 
8 8 -9 0 
12 5 -3 0 
5 -8 2 0 
1 6 -1 0 
4 6 -11 0 
8 -4 13 0 
12 13 -8 0 
1 12 -6 0 
1 13 -9 0 
3 -14 13 0 
11 8 -5 0 
11 -10 1 0 
13 -4 10 0 
14 14 -10 0 
2 -13 2 0 
6 -6 4 0 
6 12 -3 0 
7 -11 13 0 
9 7 -3 0 
9 -9 5 0 
8 14 -11 0 
1 10 -8 0 
2 4 -11 0 
